# Objective value = 95
WA1n 0
WA1p 0
WA2n 0
WA2p 1
WB1n 0
WB1p 0
WB2n 0
WB2p 1
WC1n 1
WC1p 0
WD1n 0
WD1p 1
WE1n 0
WE1p 2
WE2n 0
WE2p 1
WF1n 3
WF1p 0
WF2n 1
WF2p 0
WG1n 6
WG1p 0
WH1n 9
WH1p 0
WH2n 1
WH2p 0
WI1n 9
WI1p 0
WI2n 1
WI2p 0
WJ1n 0
WJ1p 9
WJ2n 0
WJ2p 1
WK1n 0
WK1p 34
WK2n 0
WK2p 1
WT1n 0
WT1p 5
5 7
a 0
b 1
c 0
d 1
e 0
f 1
g 1
h 1
i 0
j 0
k 0
l 0
m 0
n 0
o 0
p 1
q 1
r 1
s 1
t 1
